\ENCODING=ISO-8859-1
\Problem name: MDHFVRP

Minimize
 obj: X(0,1,0,4) + X(0,1,1,3) + 2 X(0,2,0,4) + 2 X(0,2,1,3) + X(1,0,0,4)
      + X(1,0,1,3) + X(1,2,0,4) + X(1,2,1,3) + 2 X(2,0,0,4) + 2 X(2,0,1,3)
      + X(2,1,0,4) + X(2,1,1,3) + 3 X(3,0,0,4) + 3 X(3,0,1,3) + X(3,1,0,4)
      + X(3,1,1,3) + 2 X(3,2,0,4) + 2 X(3,2,1,3) + 4 X(4,0,0,4) + 4 X(4,0,1,3)
      + 5 X(4,1,0,4) + 5 X(4,1,1,3) + X(4,2,0,4) + X(4,2,1,3) + 0 f(0,1)
      + 0 f(0,2) + 0 f(1,0) + 0 f(1,2) + 0 f(2,0) + 0 f(2,1)
Subject To
 c2_0:       X(1,0,0,4) + X(1,0,1,3) + X(2,0,0,4) + X(2,0,1,3) + X(3,0,0,4)
             + X(3,0,1,3) + X(4,0,0,4) + X(4,0,1,3)  = 1
 c2_1:       X(0,1,0,4) + X(0,1,1,3) + X(2,1,0,4) + X(2,1,1,3) + X(3,1,0,4)
             + X(3,1,1,3) + X(4,1,0,4) + X(4,1,1,3)  = 1
 c2_2:       X(0,2,0,4) + X(0,2,1,3) + X(1,2,0,4) + X(1,2,1,3) + X(3,2,0,4)
             + X(3,2,1,3) + X(4,2,0,4) + X(4,2,1,3)  = 1
 c3_0:       X(0,1,0,4) + X(0,1,1,3) + X(0,2,0,4) + X(0,2,1,3)  = 1
 c3_1:       X(1,0,0,4) + X(1,0,1,3) + X(1,2,0,4) + X(1,2,1,3)  = 1
 c3_2:       X(2,0,0,4) + X(2,0,1,3) + X(2,1,0,4) + X(2,1,1,3)  = 1
 c4_0_0_4:   - X(0,1,0,4) - X(0,2,0,4) + X(1,0,0,4) + X(2,0,0,4) + X(3,0,0,4)
             + X(4,0,0,4)  = 0
 c4_0_1_4:   X(0,1,0,4) - X(1,0,0,4) - X(1,2,0,4) + X(2,1,0,4) + X(3,1,0,4)
             + X(4,1,0,4)  = 0
 c4_0_2_4:   X(0,2,0,4) + X(1,2,0,4) - X(2,0,0,4) - X(2,1,0,4) + X(3,2,0,4)
             + X(4,2,0,4)  = 0
 c4_0_3_4:   - X(3,0,0,4) - X(3,1,0,4) - X(3,2,0,4)  = 0
 c4_0_4_4:   - X(4,0,0,4) - X(4,1,0,4) - X(4,2,0,4)  = 0
 c4_1_0_3:   - X(0,1,1,3) - X(0,2,1,3) + X(1,0,1,3) + X(2,0,1,3) + X(3,0,1,3)
             + X(4,0,1,3)  = 0
 c4_1_1_3:   X(0,1,1,3) - X(1,0,1,3) - X(1,2,1,3) + X(2,1,1,3) + X(3,1,1,3)
             + X(4,1,1,3)  = 0
 c4_1_2_3:   X(0,2,1,3) + X(1,2,1,3) - X(2,0,1,3) - X(2,1,1,3) + X(3,2,1,3)
             + X(4,2,1,3)  = 0
 c4_1_3_3:   - X(3,0,1,3) - X(3,1,1,3) - X(3,2,1,3)  = 0
 c4_1_4_3:   - X(4,0,1,3) - X(4,1,1,3) - X(4,2,1,3)  = 0
 c5:         f(3,0) + f(3,1) + f(3,2) + f(4,0) + f(4,1) + f(4,2)  = 12
 c8_3_0_0_4: X(3,0,0,4)  = 0
 c8_4_0_0_3:  = 0
 c8_3_0_1_4:  = 0
 c8_4_0_1_3: X(4,0,1,3)  = 0
 c8_3_1_0_4: X(3,1,0,4)  = 0
 c8_4_1_0_3:  = 0
 c8_3_1_1_4:  = 0
 c8_4_1_1_3: X(4,1,1,3)  = 0
 c8_3_2_0_4: X(3,2,0,4)  = 0
 c8_4_2_0_3:  = 0
 c8_3_2_1_4:  = 0
 c8_4_2_1_3: X(4,2,1,3)  = 0
 c9_0_3_0_4:  = 0
 c9_0_4_0_3:  = 0
 c9_0_3_1_4:  = 0
 c9_0_4_1_3:  = 0
 c9_1_3_0_4:  = 0
 c9_1_4_0_3:  = 0
 c9_1_3_1_4:  = 0
 c9_1_4_1_3:  = 0
 c9_2_3_0_4:  = 0
 c9_2_4_0_3:  = 0
 c9_2_3_1_4:  = 0
 c9_2_4_1_3:  = 0
 c14_0_3:    f(0,3)  = 0
 c14_0_4:    f(0,4)  = 0
 c14_1_3:    f(1,3)  = 0
 c14_1_4:    f(1,4)  = 0
 c14_2_3:    f(2,3)  = 0
 c14_2_4:    f(2,4)  = 0
 c15_3_4:    f(3,4)  = 0
 c15_4_3:    f(4,3)  = 0
Bounds
 0 <= X(0,1,0,4) <= 1
 0 <= X(0,1,1,3) <= 1
 0 <= X(0,2,0,4) <= 1
 0 <= X(0,2,1,3) <= 1
 0 <= X(1,0,0,4) <= 1
 0 <= X(1,0,1,3) <= 1
 0 <= X(1,2,0,4) <= 1
 0 <= X(1,2,1,3) <= 1
 0 <= X(2,0,0,4) <= 1
 0 <= X(2,0,1,3) <= 1
 0 <= X(2,1,0,4) <= 1
 0 <= X(2,1,1,3) <= 1
 0 <= X(3,0,0,4) <= 1
 0 <= X(3,0,1,3) <= 1
 0 <= X(3,1,0,4) <= 1
 0 <= X(3,1,1,3) <= 1
 0 <= X(3,2,0,4) <= 1
 0 <= X(3,2,1,3) <= 1
 0 <= X(4,0,0,4) <= 1
 0 <= X(4,0,1,3) <= 1
 0 <= X(4,1,0,4) <= 1
 0 <= X(4,1,1,3) <= 1
 0 <= X(4,2,0,4) <= 1
 0 <= X(4,2,1,3) <= 1
 0 <= f(0,1) <= 4
 0 <= f(0,2) <= 4
 0 <= f(0,3) <= 4
 0 <= f(0,4) <= 4
 0 <= f(1,0) <= 4
 0 <= f(1,2) <= 4
 0 <= f(1,3) <= 4
 0 <= f(1,4) <= 4
 0 <= f(2,0) <= 4
 0 <= f(2,1) <= 4
 0 <= f(2,3) <= 4
 0 <= f(2,4) <= 4
 0 <= f(3,0) <= 4
 0 <= f(3,1) <= 4
 0 <= f(3,2) <= 4
 0 <= f(3,4) <= 4
 0 <= f(4,0) <= 4
 0 <= f(4,1) <= 4
 0 <= f(4,2) <= 4
 0 <= f(4,3) <= 4
Binaries
 X(0,1,0,4)  X(0,1,1,3)  X(0,2,0,4)  X(0,2,1,3)  X(1,0,0,4)  X(1,0,1,3) 
 X(1,2,0,4)  X(1,2,1,3)  X(2,0,0,4)  X(2,0,1,3)  X(2,1,0,4)  X(2,1,1,3) 
 X(3,0,0,4)  X(3,0,1,3)  X(3,1,0,4)  X(3,1,1,3)  X(3,2,0,4)  X(3,2,1,3) 
 X(4,0,0,4)  X(4,0,1,3)  X(4,1,0,4)  X(4,1,1,3)  X(4,2,0,4)  X(4,2,1,3) 
End
